TOUR_SECTION
1
168
116
32
20
102
107
90
175
161
88
169
184
48
55
153
69
40
46
182
36
84
142
50
165
134
23
172
150
96
85
74
43
6
173
65
171
163
136
118
144
94
86
174
24
29
14
154
183
10
143
9
135
162
155
92
17
200
110
123
58
194
137
201
198
112
75
127
146
49
140
180
129
108
170
13
30
197
149
87
164
126
59
195
47
190
181
121
157
185
66
106
193
77
104
133
22
151
71
111
2
52
156
119
191
82
120
83
79
27
167
160
41
45
8
95
177
15
105
5
93
80
101
81
57
11
68
73
4
187
100
147
115
159
33
7
130
89
67
199
21
78
18
37
25
131
64
189
61
28
178
98
31
35
128
148
26
122
158
141
38
124
192
63
16
176
99
196
97
70
62
42
3
138
91
39
139
60
179
44
145
12
56
53
166
54
34
72
19
132
76
125
51
114
113
109
117
103
186
152
188
-1
EOF